N = 126;
M = 280;
Edge_Start = [1, 1, 2, 3, 3, 4, 4, 5, 5, 5, 6, 6, 7, 7, 7, 8, 8, 9, 9, 10, 10, 11, 11, 11, 12, 12, 13, 13, 14, 14, 15, 15, 16, 16, 17, 17, 18, 18, 19, 19, 20, 20, 21, 21, 22, 22, 22, 23, 23, 23, 24, 24, 25, 25, 25, 26, 26, 27, 27, 28, 28, 29, 29, 30, 30, 30, 31, 32, 32, 33, 33, 33, 34, 34, 34, 35, 35, 35, 36, 36, 37, 37, 38, 38, 39, 39, 40, 40, 40, 41, 41, 42, 43, 43, 44, 44, 45, 45, 46, 46, 46, 47, 48, 48, 49, 49, 49, 50, 50, 50, 51, 51, 52, 53, 53, 53, 54, 54, 54, 55, 55, 56, 56, 57, 57, 57, 58, 58, 59, 59, 60, 60, 60, 61, 61, 61, 62, 62, 63, 64, 64, 65, 65, 65, 66, 66, 66, 67, 67, 67, 68, 68, 68, 69, 69, 69, 70, 70, 71, 71, 72, 73, 73, 73, 74, 74, 74, 75, 75, 76, 76, 77, 77, 78, 78, 79, 79, 80, 80, 81, 81, 81, 82, 82, 82, 83, 83, 83, 84, 84, 85, 86, 87, 87, 87, 88, 89, 89, 90, 90, 90, 91, 91, 91, 92, 92, 93, 93, 94, 94, 95, 95, 96, 97, 97, 97, 98, 98, 98, 99, 99, 99, 100, 101, 101, 102, 102, 103, 103, 103, 104, 104, 104, 105, 105, 105, 106, 106, 106, 107, 107, 108, 109, 109, 110, 110, 110, 111, 111, 112, 113, 113, 114, 114, 114, 115, 115, 116, 116, 117, 117, 118, 118, 119, 119, 120, 120, 120, 121, 122, 122, 123, 123, 124, 124, 124, 125, 125, 126, 126];
Edge_End = [2, 16, 1, 4, 18, 3, 5, 4, 6, 20, 5, 7, 6, 8, 22, 7, 9, 8, 10, 9, 11, 10, 12, 26, 11, 13, 12, 14, 13, 15, 14, 30, 1, 17, 16, 33, 3, 19, 18, 35, 5, 21, 20, 22, 7, 21, 23, 22, 24, 39, 23, 25, 24, 26, 41, 11, 25, 28, 43, 27, 29, 28, 30, 15, 29, 31, 30, 33, 48, 17, 32, 34, 33, 35, 50, 19, 34, 36, 35, 37, 36, 38, 37, 54, 23, 40, 39, 41, 56, 25, 40, 43, 27, 42, 45, 60, 44, 46, 45, 47, 62, 46, 32, 49, 48, 50, 65, 34, 49, 51, 50, 67, 53, 52, 54, 69, 38, 53, 55, 54, 71, 40, 57, 56, 58, 73, 57, 59, 58, 60, 44, 59, 61, 60, 62, 77, 46, 61, 79, 65, 80, 49, 64, 66, 65, 67, 82, 51, 66, 68, 67, 69, 84, 53, 68, 70, 69, 71, 55, 70, 73, 57, 72, 74, 73, 75, 90, 74, 76, 75, 92, 61, 78, 77, 79, 63, 78, 64, 81, 80, 82, 97, 66, 81, 83, 82, 84, 99, 68, 83, 101, 87, 86, 88, 103, 87, 90, 105, 74, 89, 91, 90, 92, 107, 76, 91, 94, 109, 93, 95, 94, 111, 97, 81, 96, 98, 97, 99, 114, 83, 98, 100, 99, 85, 102, 101, 103, 87, 102, 104, 103, 105, 120, 89, 104, 106, 105, 107, 122, 91, 106, 124, 93, 110, 109, 111, 126, 95, 110, 113, 112, 114, 98, 113, 115, 114, 116, 115, 117, 116, 118, 117, 119, 118, 120, 104, 119, 121, 120, 106, 123, 122, 124, 108, 123, 125, 124, 126, 110, 125];
L = [1, 1, 1, 1, 1, 1, 1, 1, 1, 1, 1, 1, 1, 1, 1, 1, 1, 1, 1, 1, 1, 1, 1, 1, 1, 1, 1, 1, 1, 1, 1, 1, 1, 1, 1, 1, 1, 1, 1, 1, 1, 1, 1, 1, 1, 1, 1, 1, 1, 1, 1, 1, 1, 1, 1, 1, 1, 1, 1, 1, 1, 1, 1, 1, 1, 1, 1, 1, 1, 1, 1, 1, 1, 1, 1, 1, 1, 1, 1, 1, 1, 1, 1, 1, 1, 1, 1, 1, 1, 1, 1, 1, 1, 1, 1, 1, 1, 1, 1, 1, 1, 1, 1, 1, 1, 1, 1, 1, 1, 1, 1, 1, 1, 1, 1, 1, 1, 1, 1, 1, 1, 1, 1, 1, 1, 1, 1, 1, 1, 1, 1, 1, 1, 1, 1, 1, 1, 1, 1, 1, 1, 1, 1, 1, 1, 1, 1, 1, 1, 1, 1, 1, 1, 1, 1, 1, 1, 1, 1, 1, 1, 1, 1, 1, 1, 1, 1, 1, 1, 1, 1, 1, 1, 1, 1, 1, 1, 1, 1, 1, 1, 1, 1, 1, 1, 1, 1, 1, 1, 1, 1, 1, 1, 1, 1, 1, 1, 1, 1, 1, 1, 1, 1, 1, 1, 1, 1, 1, 1, 1, 1, 1, 1, 1, 1, 1, 1, 1, 1, 1, 1, 1, 1, 1, 1, 1, 1, 1, 1, 1, 1, 1, 1, 1, 1, 1, 1, 1, 1, 1, 1, 1, 1, 1, 1, 1, 1, 1, 1, 1, 1, 1, 1, 1, 1, 1, 1, 1, 1, 1, 1, 1, 1, 1, 1, 1, 1, 1, 1, 1, 1, 1, 1, 1, 1, 1, 1, 1, 1, 1];
T = [1, 1, 1, 1, 1, 1, 1, 1, 1, 1, 1, 1, 1, 1, 1, 1, 1, 1, 1, 1, 1, 1, 1, 1, 1, 1, 1, 1, 1, 1, 1, 1, 1, 1, 1, 1, 1, 1, 1, 1, 1, 1, 1, 1, 1, 1, 1, 1, 1, 1, 1, 1, 1, 1, 1, 1, 1, 1, 1, 1, 1, 1, 1, 1, 1, 1, 1, 1, 1, 1, 1, 1, 1, 1, 1, 1, 1, 1, 1, 1, 1, 1, 1, 1, 1, 1, 1, 1, 1, 1, 1, 1, 1, 1, 1, 1, 1, 1, 1, 1, 1, 1, 1, 1, 1, 1, 1, 1, 1, 1, 1, 1, 1, 1, 1, 1, 1, 1, 1, 1, 1, 1, 1, 1, 1, 1, 1, 1, 1, 1, 1, 1, 1, 1, 1, 1, 1, 1, 1, 1, 1, 1, 1, 1, 1, 1, 1, 1, 1, 1, 1, 1, 1, 1, 1, 1, 1, 1, 1, 1, 1, 1, 1, 1, 1, 1, 1, 1, 1, 1, 1, 1, 1, 1, 1, 1, 1, 1, 1, 1, 1, 1, 1, 1, 1, 1, 1, 1, 1, 1, 1, 1, 1, 1, 1, 1, 1, 1, 1, 1, 1, 1, 1, 1, 1, 1, 1, 1, 1, 1, 1, 1, 1, 1, 1, 1, 1, 1, 1, 1, 1, 1, 1, 1, 1, 1, 1, 1, 1, 1, 1, 1, 1, 1, 1, 1, 1, 1, 1, 1, 1, 1, 1, 1, 1, 1, 1, 1, 1, 1, 1, 1, 1, 1, 1, 1, 1, 1, 1, 1, 1, 1, 1, 1, 1, 1, 1, 1, 1, 1, 1, 1, 1, 1, 1, 1, 1, 1, 1, 1];
Lower_Bound = [0, 1, 8, 9, 10, 11, 12, 13, 14, 15, 16, 17, 18, 19, 20, 1, 2, 7, 6, 11, 12, 13, 14, 15, 16, 17, 24, 23, 22, 21, 22, 4, 3, 4, 5, 6, 7, 8, 15, 16, 17, 26, 25, 22, 23, 24, 25, 5, 6, 5, 6, 11, 10, 9, 10, 17, 18, 19, 20, 21, 22, 23, 26, 8, 7, 8, 7, 8, 9, 10, 11, 20, 19, 20, 21, 22, 23, 24, 25, 9, 10, 9, 10, 9, 24, 23, 22, 23, 22, 21, 22, 23, 30, 31, 30, 12, 11, 12, 11, 12, 23, 22, 21, 20, 21, 22, 23, 26, 29, 28, 29, 15, 14, 13, 14, 15, 16, 17, 18, 19, 20, 23, 24, 25, 26, 27];
Upper_Bound = [0, 1, 8, 9, 10, 11, 12, 13, 14, 15, 16, 17, 18, 19, 20, 1, 2, 7, 6, 11, 12, 13, 14, 15, 16, 17, 24, 23, 22, 21, 22, 4, 3, 4, 5, 6, 7, 8, 15, 16, 17, 26, 25, 22, 23, 24, 25, 5, 6, 5, 6, 11, 10, 9, 10, 17, 18, 19, 20, 21, 22, 23, 26, 8, 7, 8, 7, 8, 9, 10, 11, 20, 19, 20, 21, 22, 23, 24, 25, 9, 10, 9, 10, 9, 24, 23, 22, 23, 22, 21, 22, 23, 30, 31, 30, 12, 11, 12, 11, 12, 23, 22, 21, 20, 21, 22, 23, 26, 29, 28, 29, 15, 14, 13, 14, 15, 16, 17, 18, 19, 20, 23, 24, 25, 26, 27];
Start = 1;
End = 126;
Time = 27;
